instances/shortest_path/discrete/shortest_path_7_13.lp
\ Model nohadani_7_13
\ LP format - for model browsing. Use MPS format to capture full model detail.
\ Signature: 0x917f322750627386
Minimize
  14.7648230602334 y[0,1] + 40.22437072223753 y[0,3]
   + 48.08326112068523 y[0,4] + 45.61797891182817 y[0,5]
   + 57.70615218501403 y[0,6] + 14.7648230602334 y[1,0]
   + 53.81449618829484 y[1,3] + 59.41380311005179 y[1,4]
   + 55.54277630799526 y[1,5] + 59.46427498927402 y[1,6]
   + 44.10215414239989 y[2,4] + 38.05259518088089 y[2,5]
   + 17.46424919657298 y[2,6] + 40.22437072223753 y[3,0]
   + 53.81449618829484 y[3,1] + 52.32590180780452 y[3,4]
   + 55.97320787662612 y[3,5] + 48.08326112068523 y[4,0]
   + 59.41380311005179 y[4,1] + 44.10215414239989 y[4,2]
   + 52.32590180780452 y[4,3] + 7.810249675906654 y[4,5]
   + 41.59326868617084 y[4,6] + 45.61797891182817 y[5,0]
   + 55.54277630799526 y[5,1] + 38.05259518088089 y[5,2]
   + 55.97320787662612 y[5,3] + 7.810249675906654 y[5,4]
   + 34.0147027033899 y[5,6] + 57.70615218501403 y[6,0]
   + 59.46427498927402 y[6,1] + 17.46424919657298 y[6,2]
   + 41.59326868617084 y[6,4] + 34.0147027033899 y[6,5] + x[0,1] + x[0,3]
   + x[0,4] + x[0,5] + x[0,6] + x[1,0] + x[1,3] + x[1,4] + x[1,5] + x[1,6]
   + x[2,4] + x[2,5] + x[2,6] + x[3,0] + x[3,1] + x[3,4] + x[3,5] + x[4,0]
   + x[4,1] + x[4,2] + x[4,3] + x[4,5] + x[4,6] + x[5,0] + x[5,1] + x[5,2]
   + x[5,3] + x[5,4] + x[5,6] + x[6,0] + x[6,1] + x[6,2] + x[6,4] + x[6,5]
   + 1.47648230602334 r[0,1] + 4.022437072223753 r[0,3]
   + 4.808326112068523 r[0,4] + 4.561797891182818 r[0,5]
   + 5.770615218501404 r[0,6] + 1.47648230602334 r[1,0]
   + 5.381449618829484 r[1,3] + 5.941380311005179 r[1,4]
   + 5.554277630799526 r[1,5] + 5.946427498927402 r[1,6]
   + 4.410215414239989 r[2,4] + 3.805259518088089 r[2,5]
   + 1.746424919657298 r[2,6] + 4.022437072223753 r[3,0]
   + 5.381449618829484 r[3,1] + 5.232590180780452 r[3,4]
   + 5.597320787662612 r[3,5] + 4.808326112068523 r[4,0]
   + 5.941380311005179 r[4,1] + 4.410215414239989 r[4,2]
   + 5.232590180780452 r[4,3] + 0.7810249675906654 r[4,5]
   + 4.159326868617085 r[4,6] + 4.561797891182818 r[5,0]
   + 5.554277630799526 r[5,1] + 3.805259518088089 r[5,2]
   + 5.597320787662612 r[5,3] + 0.7810249675906654 r[5,4]
   + 3.40147027033899 r[5,6] + 5.770615218501404 r[6,0]
   + 5.946427498927402 r[6,1] + 1.746424919657298 r[6,2]
   + 4.159326868617085 r[6,4] + 3.40147027033899 r[6,5]
Subject To
 flow_cons_inner_nodes[0]: - y[0,1] - y[0,3] - y[0,4] - y[0,5] - y[0,6]
   + y[1,0] + y[3,0] + y[4,0] + y[5,0] + y[6,0] = 0
 flow_cons_inner_nodes[1]: y[0,1] - y[1,0] - y[1,3] - y[1,4] - y[1,5]
   - y[1,6] + y[3,1] + y[4,1] + y[5,1] + y[6,1] = 0
 flow_cons_inner_nodes[4]: y[0,4] + y[1,4] + y[2,4] + y[3,4] - y[4,0]
   - y[4,1] - y[4,2] - y[4,3] - y[4,5] - y[4,6] + y[5,4] + y[6,4] = 0
 flow_cons_inner_nodes[5]: y[0,5] + y[1,5] + y[2,5] + y[3,5] + y[4,5]
   - y[5,0] - y[5,1] - y[5,2] - y[5,3] - y[5,4] - y[5,6] + y[6,5] = 0
 flow_cons_inner_nodes[6]: y[0,6] + y[1,6] + y[2,6] + y[4,6] + y[5,6]
   - y[6,0] - y[6,1] - y[6,2] - y[6,4] - y[6,5] = 0
 flow_cons_source: y[2,4] + y[2,5] + y[2,6] - y[4,2] - y[5,2] - y[6,2] = 1
 flow_cons_target: y[0,3] + y[1,3] - y[3,0] - y[3,1] - y[3,4] - y[3,5]
   + y[4,3] + y[5,3] = 1
 primal_lower: 1.981962352629675 x[0,1] + 0.8123041202669152 x[0,3]
   + 0.8992238126775324 x[0,4] + 4.042222829009529 x[0,5]
   + 1.780348366164603 x[0,6] + 4.518703857554836 x[1,0]
   + 1.854919780164584 x[1,3] + 0.8164471616220268 x[1,4]
   + 0.7794820074443118 x[1,5] + 1.71342529170013 x[1,6]
   + 1.847123086373345 x[2,4] + 0.1143021867400055 x[2,5]
   + 1.789599827586603 x[2,6] + 3.128881170782968 x[3,0]
   + 0.0745156921256515 x[3,1] + 3.468549924115819 x[3,4]
   + 4.931718710727615 x[3,5] + 0.1759006690089668 x[4,0]
   + 1.373523444446052 x[4,1] + 2.491837364013351 x[4,2]
   + 1.184713306023924 x[4,3] + 2.814603527995843 x[4,5]
   + 3.347032134976881 x[4,6] + 0.450311217104681 x[5,0]
   + 3.832299409473836 x[5,1] + 1.553543337831682 x[5,2]
   + 1.740916885499783 x[5,3] + 2.201312696354568 x[5,4]
   + 0.1221369846190872 x[5,6] + 2.139120507263803 x[6,0]
   + 2.818367127146844 x[6,1] + 0.4403725944598955 x[6,2]
   + 5.010841977378937 x[6,4] + 1.232671416751493 x[6,5] + 18 u[0,1]
   + 90 u[0,3] + 40 u[0,4] + 69 u[0,5] + 70 u[0,6] + 100 u[1,0] + 7 u[1,3]
   + 38 u[1,4] + 59 u[1,5] + 88 u[1,6] + 86 u[2,4] + 57 u[2,5] + 38 u[2,6]
   + 10 u[3,0] + 31 u[3,1] + 95 u[3,4] + 27 u[3,5] + 58 u[4,0] + 83 u[4,1]
   + 20 u[4,2] + 79 u[4,3] + 90 u[4,5] + 62 u[4,6] + 89 u[5,0] + 99 u[5,1]
   + 54 u[5,2] + 64 u[5,3] + 18 u[5,4] + 72 u[5,6] + 41 u[6,0] + 52 u[6,1]
   + 26 u[6,2] + 62 u[6,4] + 95 u[6,5] <= 180
 mccormick1[0,1]: - u[0,1] + r[0,1] <= 0
 mccormick1[0,3]: - u[0,3] + r[0,3] <= 0
 mccormick1[0,4]: - u[0,4] + r[0,4] <= 0
 mccormick1[0,5]: - u[0,5] + r[0,5] <= 0
 mccormick1[0,6]: - u[0,6] + r[0,6] <= 0
 mccormick1[1,0]: - u[1,0] + r[1,0] <= 0
 mccormick1[1,3]: - u[1,3] + r[1,3] <= 0
 mccormick1[1,4]: - u[1,4] + r[1,4] <= 0
 mccormick1[1,5]: - u[1,5] + r[1,5] <= 0
 mccormick1[1,6]: - u[1,6] + r[1,6] <= 0
 mccormick1[2,4]: - u[2,4] + r[2,4] <= 0
 mccormick1[2,5]: - u[2,5] + r[2,5] <= 0
 mccormick1[2,6]: - u[2,6] + r[2,6] <= 0
 mccormick1[3,0]: - u[3,0] + r[3,0] <= 0
 mccormick1[3,1]: - u[3,1] + r[3,1] <= 0
 mccormick1[3,4]: - u[3,4] + r[3,4] <= 0
 mccormick1[3,5]: - u[3,5] + r[3,5] <= 0
 mccormick1[4,0]: - u[4,0] + r[4,0] <= 0
 mccormick1[4,1]: - u[4,1] + r[4,1] <= 0
 mccormick1[4,2]: - u[4,2] + r[4,2] <= 0
 mccormick1[4,3]: - u[4,3] + r[4,3] <= 0
 mccormick1[4,5]: - u[4,5] + r[4,5] <= 0
 mccormick1[4,6]: - u[4,6] + r[4,6] <= 0
 mccormick1[5,0]: - u[5,0] + r[5,0] <= 0
 mccormick1[5,1]: - u[5,1] + r[5,1] <= 0
 mccormick1[5,2]: - u[5,2] + r[5,2] <= 0
 mccormick1[5,3]: - u[5,3] + r[5,3] <= 0
 mccormick1[5,4]: - u[5,4] + r[5,4] <= 0
 mccormick1[5,6]: - u[5,6] + r[5,6] <= 0
 mccormick1[6,0]: - u[6,0] + r[6,0] <= 0
 mccormick1[6,1]: - u[6,1] + r[6,1] <= 0
 mccormick1[6,2]: - u[6,2] + r[6,2] <= 0
 mccormick1[6,4]: - u[6,4] + r[6,4] <= 0
 mccormick1[6,5]: - u[6,5] + r[6,5] <= 0
 mccormick2[0,1]: - y[0,1] + r[0,1] <= 0
 mccormick2[0,3]: - y[0,3] + r[0,3] <= 0
 mccormick2[0,4]: - y[0,4] + r[0,4] <= 0
 mccormick2[0,5]: - y[0,5] + r[0,5] <= 0
 mccormick2[0,6]: - y[0,6] + r[0,6] <= 0
 mccormick2[1,0]: - y[1,0] + r[1,0] <= 0
 mccormick2[1,3]: - y[1,3] + r[1,3] <= 0
 mccormick2[1,4]: - y[1,4] + r[1,4] <= 0
 mccormick2[1,5]: - y[1,5] + r[1,5] <= 0
 mccormick2[1,6]: - y[1,6] + r[1,6] <= 0
 mccormick2[2,4]: - y[2,4] + r[2,4] <= 0
 mccormick2[2,5]: - y[2,5] + r[2,5] <= 0
 mccormick2[2,6]: - y[2,6] + r[2,6] <= 0
 mccormick2[3,0]: - y[3,0] + r[3,0] <= 0
 mccormick2[3,1]: - y[3,1] + r[3,1] <= 0
 mccormick2[3,4]: - y[3,4] + r[3,4] <= 0
 mccormick2[3,5]: - y[3,5] + r[3,5] <= 0
 mccormick2[4,0]: - y[4,0] + r[4,0] <= 0
 mccormick2[4,1]: - y[4,1] + r[4,1] <= 0
 mccormick2[4,2]: - y[4,2] + r[4,2] <= 0
 mccormick2[4,3]: - y[4,3] + r[4,3] <= 0
 mccormick2[4,5]: - y[4,5] + r[4,5] <= 0
 mccormick2[4,6]: - y[4,6] + r[4,6] <= 0
 mccormick2[5,0]: - y[5,0] + r[5,0] <= 0
 mccormick2[5,1]: - y[5,1] + r[5,1] <= 0
 mccormick2[5,2]: - y[5,2] + r[5,2] <= 0
 mccormick2[5,3]: - y[5,3] + r[5,3] <= 0
 mccormick2[5,4]: - y[5,4] + r[5,4] <= 0
 mccormick2[5,6]: - y[5,6] + r[5,6] <= 0
 mccormick2[6,0]: - y[6,0] + r[6,0] <= 0
 mccormick2[6,1]: - y[6,1] + r[6,1] <= 0
 mccormick2[6,2]: - y[6,2] + r[6,2] <= 0
 mccormick2[6,4]: - y[6,4] + r[6,4] <= 0
 mccormick2[6,5]: - y[6,5] + r[6,5] <= 0
 mccormick3[0,1]: - y[0,1] - u[0,1] + r[0,1] >= -1
 mccormick3[0,3]: - y[0,3] - u[0,3] + r[0,3] >= -1
 mccormick3[0,4]: - y[0,4] - u[0,4] + r[0,4] >= -1
 mccormick3[0,5]: - y[0,5] - u[0,5] + r[0,5] >= -1
 mccormick3[0,6]: - y[0,6] - u[0,6] + r[0,6] >= -1
 mccormick3[1,0]: - y[1,0] - u[1,0] + r[1,0] >= -1
 mccormick3[1,3]: - y[1,3] - u[1,3] + r[1,3] >= -1
 mccormick3[1,4]: - y[1,4] - u[1,4] + r[1,4] >= -1
 mccormick3[1,5]: - y[1,5] - u[1,5] + r[1,5] >= -1
 mccormick3[1,6]: - y[1,6] - u[1,6] + r[1,6] >= -1
 mccormick3[2,4]: - y[2,4] - u[2,4] + r[2,4] >= -1
 mccormick3[2,5]: - y[2,5] - u[2,5] + r[2,5] >= -1
 mccormick3[2,6]: - y[2,6] - u[2,6] + r[2,6] >= -1
 mccormick3[3,0]: - y[3,0] - u[3,0] + r[3,0] >= -1
 mccormick3[3,1]: - y[3,1] - u[3,1] + r[3,1] >= -1
 mccormick3[3,4]: - y[3,4] - u[3,4] + r[3,4] >= -1
 mccormick3[3,5]: - y[3,5] - u[3,5] + r[3,5] >= -1
 mccormick3[4,0]: - y[4,0] - u[4,0] + r[4,0] >= -1
 mccormick3[4,1]: - y[4,1] - u[4,1] + r[4,1] >= -1
 mccormick3[4,2]: - y[4,2] - u[4,2] + r[4,2] >= -1
 mccormick3[4,3]: - y[4,3] - u[4,3] + r[4,3] >= -1
 mccormick3[4,5]: - y[4,5] - u[4,5] + r[4,5] >= -1
 mccormick3[4,6]: - y[4,6] - u[4,6] + r[4,6] >= -1
 mccormick3[5,0]: - y[5,0] - u[5,0] + r[5,0] >= -1
 mccormick3[5,1]: - y[5,1] - u[5,1] + r[5,1] >= -1
 mccormick3[5,2]: - y[5,2] - u[5,2] + r[5,2] >= -1
 mccormick3[5,3]: - y[5,3] - u[5,3] + r[5,3] >= -1
 mccormick3[5,4]: - y[5,4] - u[5,4] + r[5,4] >= -1
 mccormick3[5,6]: - y[5,6] - u[5,6] + r[5,6] >= -1
 mccormick3[6,0]: - y[6,0] - u[6,0] + r[6,0] >= -1
 mccormick3[6,1]: - y[6,1] - u[6,1] + r[6,1] >= -1
 mccormick3[6,2]: - y[6,2] - u[6,2] + r[6,2] >= -1
 mccormick3[6,4]: - y[6,4] - u[6,4] + r[6,4] >= -1
 mccormick3[6,5]: - y[6,5] - u[6,5] + r[6,5] >= -1
Bounds
Binaries
 y[0,1] y[0,3] y[0,4] y[0,5] y[0,6] y[1,0] y[1,3] y[1,4] y[1,5] y[1,6]
 y[2,4] y[2,5] y[2,6] y[3,0] y[3,1] y[3,4] y[3,5] y[4,0] y[4,1] y[4,2]
 y[4,3] y[4,5] y[4,6] y[5,0] y[5,1] y[5,2] y[5,3] y[5,4] y[5,6] y[6,0]
 y[6,1] y[6,2] y[6,4] y[6,5] x[0,1] x[0,3] x[0,4] x[0,5] x[0,6] x[1,0]
 x[1,3] x[1,4] x[1,5] x[1,6] x[2,4] x[2,5] x[2,6] x[3,0] x[3,1] x[3,4]
 x[3,5] x[4,0] x[4,1] x[4,2] x[4,3] x[4,5] x[4,6] x[5,0] x[5,1] x[5,2]
 x[5,3] x[5,4] x[5,6] x[6,0] x[6,1] x[6,2] x[6,4] x[6,5] u[0,1] u[0,3]
 u[0,4] u[0,5] u[0,6] u[1,0] u[1,3] u[1,4] u[1,5] u[1,6] u[2,4] u[2,5]
 u[2,6] u[3,0] u[3,1] u[3,4] u[3,5] u[4,0] u[4,1] u[4,2] u[4,3] u[4,5]
 u[4,6] u[5,0] u[5,1] u[5,2] u[5,3] u[5,4] u[5,6] u[6,0] u[6,1] u[6,2]
 u[6,4] u[6,5] r[0,1] r[0,3] r[0,4] r[0,5] r[0,6] r[1,0] r[1,3] r[1,4]
 r[1,5] r[1,6] r[2,4] r[2,5] r[2,6] r[3,0] r[3,1] r[3,4] r[3,5] r[4,0]
 r[4,1] r[4,2] r[4,3] r[4,5] r[4,6] r[5,0] r[5,1] r[5,2] r[5,3] r[5,4]
 r[5,6] r[6,0] r[6,1] r[6,2] r[6,4] r[6,5]
End
